c 160_3_checker_5cl.cnf
c
c field = 160
c formula set type = 3_checker_5cl
c
p cnf 5 6
348 
378 
408 
-439 
-288 
349 
379 
409 
-438 
-289 
350 
382 
414 
-447 
-286 
351 
383 
415 
-446 
-287 
346 
374 
402 
-431 
-290 
347 
375 
403 
-430 
-291 
